min: 1 x1 + 1 x2 + 1 x3 + 1 x4 + 1 x5 + 1 x6 + 1 x7 + 1 x8 + 1 x9 + 1 x10;

x6 + x2 >= 1;
x4 + x7 + x10 >= 1;
x8 + x2 + x6 >= 1;
x6 + x10 >= 1;
x8 >= 1;
x6 + x7 + x4 + x5 >= 1;
x2 + x7 + x8 >= 1;
x9 >= 1;
x7 >= 1;
x4 + x9 + x6 + x1 >= 1;
x9 + x8 + x3 >= 1;
x8 >= 1;
x3 >= 1;
x6 >= 1;
x5 + x10 >= 1;
x7 + x9 + x1 >= 1;
x8 + x1 >= 1;
x10 + x2 + x4 + x1 >= 1;
x7 + x2 >= 1;
x3 + x4 + x2 + x7 >= 1;
x10 + x9 >= 1;
x7 >= 1;
x6 >= 1;
x1 + x4 + x8 >= 1;
x2 >= 1;
x6 + x7 + x10 + x4 >= 1;
x9 + x10 + x5 >= 1;
x8 + x2 + x3 >= 1;
x2 + x7 >= 1;
x10 >= 1;

bin x1, x2, x3, x4, x5, x6, x7, x8, x9, x10;
